SLURM_JOB_ID: 55204005
SLURM_JOB_USER: vsc34888
SLURM_JOB_ACCOUNT: lp_elect_gen_modeling
SLURM_JOB_NAME: test_parallelisation_3_bus_parallel
SLURM_CLUSTER_NAME: genius
SLURM_JOB_PARTITION: batch
SLURM_NNODES: 1
SLURM_NODELIST: r23i27n02
SLURM_JOB_CPUS_PER_NODE: 12
Date: Thu Aug 31 15:14:10 CEST 2023
Walltime: 00-20:00:00
========================================================================
Activation OK
Starting runs

 #### Academic research license - for non-commercial use only #### 

3-bus
/vsc-hard-mounts/leuven-data/348/vsc34888/JointResearch/05.Models/06.Benchmarking/E.Representative_days_based_on_Line_Benefits_OptModel
gurobi
['oSN_Main_v2.py']
Namespace(case='3-bus', dir='/vsc-hard-mounts/leuven-data/348/vsc34888/JointResearch/05.Models/06.Benchmarking/E.Representative_days_based_on_Line_Benefits_OptModel', solver='gurobi')
Reading    input data                 ...  0 s
Setting up input data                 ...  4 s
Generating objective function         ...  2 s
Generating operation & investment     ...  0 s
Generating balance                    ...  7 s
Generating storage operation          ...  0 s
Generating generation commitment      ...  2 s
Generating generation capacity        ...  0 s
Generating net P capacity bounds      ...  6 s
Generating net Q capacity bounds      ...  7 s
Generating net P constraints          ...  19 s
Generating net Q constraints          ...  22 s
Generating net voltage bounds         ...  0 s
Generating net non negative losses    ...  1 s
Generating net linear SOC2            ...  2 s
Generating net gshb injection         ...  0 s
Generating net bshb injection         ...  0 s
Econometric analysis  constraints     ...  0 s
Writing LP file                       ...  78 s
Set parameter Username
Set parameter TokenServer to value "SET-S-ME-LM3.luna.kuleuven.be"
Read LP format model from file /tmp/tmprasxs66x.pyomo.lp
Reading time = 5.58 seconds
x1: 2140323 rows, 677969 columns, 6990646 nonzeros
Set parameter QCPDual to value 1
Set parameter LogFile to value "/vsc-hard-mounts/leuven-data/348/vsc34888/JointResearch/05.Models/06.Benchmarking/E.Representative_days_based_on_Line_Benefits_OptModel/3-bus/openStarNet_3-bus.log"
Set parameter Method to value 2
Set parameter MIPFocus to value 1
Set parameter Presolve to value 2
Set parameter RINS to value 100
Set parameter MIPGap to value 0.01
Set parameter Threads to value 36
Set parameter TimeLimit to value 76000
Set parameter IterationLimit to value 76000000
Gurobi Optimizer version 9.5.0 build v9.5.0rc5 (linux64)
Thread count: 36 physical cores, 36 logical processors, using up to 36 threads
Optimize a model with 2140323 rows, 677969 columns and 6990646 nonzeros
Model fingerprint: 0x07a9fbde
Variable types: 677960 continuous, 9 integer (9 binary)
Coefficient statistics:
  Matrix range     [9e-03, 4e+02]
  Objective range  [1e+00, 1e+00]
  Bounds range     [7e-06, 1e+00]
  RHS range        [7e-06, 1e+00]
Presolve removed 541635 rows and 78628 columns (presolve time = 5s) ...
Presolve removed 541635 rows and 78628 columns (presolve time = 10s) ...
Presolve removed 541635 rows and 78628 columns (presolve time = 15s) ...
Presolve removed 541635 rows and 78628 columns
Presolve time: 18.71s
Presolved: 1598688 rows, 599341 columns, 5771044 nonzeros
Variable types: 599332 continuous, 9 integer (9 binary)
Root relaxation presolve removed 0 rows and 0 columns (presolve time = 5s) ...
Root relaxation presolved: 1598688 rows, 599341 columns, 5771044 nonzeros

Root barrier log...

Ordering time: 0.58s

Barrier statistics:
 Dense cols : 9
 AA' NZ     : 2.192e+07
 Factor NZ  : 3.856e+07 (roughly 1.2 GB of memory)
 Factor Ops : 1.453e+09 (less than 1 second per iteration)
 Threads    : 35

                  Objective                Residual
Iter       Primal          Dual         Primal    Dual     Compl     Time
   0   6.78497787e+04 -9.08041789e+06  8.21e-01 2.26e+00  6.96e+00    36s
   1   2.08040566e+04 -1.19902594e+06  1.35e-01 3.50e-01  7.26e-01    38s
   2   7.63729355e+03 -2.75101789e+05  2.37e-03 4.06e-09  1.10e-01    40s
   3   1.07943982e+03 -1.45561285e+04  8.01e-05 2.29e-10  5.94e-03    41s
   4   3.64236780e+02 -2.16023627e+03  2.07e-12 3.28e-11  9.58e-04    43s
   5   2.43904244e+02 -7.34928959e+02  1.29e-12 1.23e-11  3.71e-04    46s
   6   1.73562567e+02 -1.78074469e+02  1.40e-12 3.65e-12  1.33e-04    48s
   7   1.33367281e+02 -3.75599316e+01  3.44e-12 1.28e-12  6.48e-05    52s
   8   1.16721062e+02  3.70115839e+01  2.46e-12 8.82e-13  3.02e-05    54s
   9   9.77366205e+01  7.30926033e+01  6.07e-12 1.13e-12  9.34e-06    56s
  10   9.27635851e+01  8.28070938e+01  2.19e-11 3.41e-13  3.77e-06    59s
  11   9.19546225e+01  8.39022326e+01  1.94e-11 4.09e-13  3.05e-06    61s
  12   9.13057766e+01  8.51338244e+01  1.59e-11 3.27e-13  2.34e-06    62s
  13   9.12621866e+01  8.53736847e+01  1.56e-11 3.02e-13  2.23e-06    64s
  14   9.11129339e+01  8.55612259e+01  2.57e-11 2.77e-13  2.10e-06    66s
  15   9.09258496e+01  8.62004264e+01  2.38e-11 5.40e-13  1.79e-06    68s
  16   9.04335120e+01  8.66275956e+01  6.17e-11 7.60e-13  1.44e-06    71s
  17   9.03771501e+01  8.67074084e+01  6.02e-11 3.13e-13  1.39e-06    73s
  18   9.00932033e+01  8.71198185e+01  9.87e-11 3.62e-13  1.13e-06    77s
  19   8.99448679e+01  8.73863342e+01  9.08e-11 6.08e-13  9.69e-07    79s
  20   8.97273374e+01  8.75643141e+01  1.06e-10 4.19e-13  8.19e-07    82s
  21   8.96193483e+01  8.76761265e+01  1.97e-10 1.49e-13  7.36e-07    84s
  22   8.94624285e+01  8.78873308e+01  1.96e-10 5.54e-13  5.97e-07    86s
  23   8.93005164e+01  8.79382623e+01  2.07e-10 1.01e-12  5.16e-07    88s
  24   8.91812502e+01  8.80029068e+01  5.44e-10 6.61e-13  4.46e-07    90s
  25   8.90690870e+01  8.81338424e+01  4.43e-10 7.53e-13  3.54e-07    93s
  26   8.90490955e+01  8.81488296e+01  4.28e-10 4.51e-13  3.41e-07    95s
  27   8.89594919e+01  8.82275018e+01  1.33e-09 1.06e-12  2.77e-07    97s
  28   8.89257851e+01  8.82622705e+01  1.23e-09 7.35e-13  2.51e-07   103s
  29   8.88919726e+01  8.82807865e+01  1.14e-09 8.21e-13  2.32e-07   106s
  30   8.88584947e+01  8.82975661e+01  1.05e-09 1.04e-12  2.13e-07   108s
  31   8.88304362e+01  8.83220832e+01  9.46e-10 8.99e-13  1.93e-07   111s
  32   8.88030401e+01  8.83373248e+01  8.63e-10 1.17e-12  1.76e-07   113s
  33   8.87827834e+01  8.83538619e+01  8.01e-10 7.39e-13  1.62e-07   117s
  34   8.87738040e+01  8.83612056e+01  7.66e-10 2.24e-13  1.56e-07   119s
  35   8.87551704e+01  8.83845005e+01  6.96e-10 4.37e-13  1.40e-07   126s
  36   8.87375476e+01  8.83960824e+01  1.24e-09 1.00e-12  1.29e-07   129s
  37   8.87144866e+01  8.84147480e+01  1.37e-09 6.08e-13  1.14e-07   131s
  38   8.87109775e+01  8.84199167e+01  1.30e-09 1.30e-12  1.10e-07   133s
  39   8.87003699e+01  8.84264965e+01  1.20e-09 1.06e-12  1.04e-07   134s
  40   8.86857442e+01  8.84371923e+01  1.30e-09 8.17e-13  9.42e-08   138s
  41   8.86820312e+01  8.84424366e+01  1.28e-09 6.00e-13  9.08e-08   139s
  42   8.86667729e+01  8.84492247e+01  1.18e-09 9.52e-13  8.24e-08   141s
  43   8.86604189e+01  8.84544737e+01  1.02e-09 6.39e-13  7.80e-08   143s
  44   8.86419378e+01  8.84733110e+01  2.49e-09 3.29e-13  6.39e-08   147s
  45   8.86400244e+01  8.84764349e+01  2.40e-09 3.23e-13  6.20e-08   149s
  46   8.86340621e+01  8.84818499e+01  2.25e-09 7.60e-13  5.77e-08   150s
  47   8.86237291e+01  8.84863961e+01  2.30e-09 6.15e-13  5.20e-08   153s
  48   8.86210242e+01  8.84895923e+01  2.09e-09 5.47e-13  4.98e-08   154s
  49   8.86136479e+01  8.84979935e+01  2.02e-09 5.76e-13  4.38e-08   159s
  50   8.86118380e+01  8.85005494e+01  1.94e-09 3.87e-13  4.22e-08   160s
  51   8.86085449e+01  8.85078985e+01  1.85e-09 3.13e-13  3.81e-08   165s
  52   8.86018539e+01  8.85101148e+01  1.63e-09 3.62e-13  3.48e-08   169s
  53   8.85997593e+01  8.85161290e+01  1.54e-09 6.22e-13  3.17e-08   171s
  54   8.85977182e+01  8.85183618e+01  1.45e-09 1.56e-13  3.01e-08   173s
  55   8.85951626e+01  8.85204436e+01  1.36e-09 4.41e-13  2.83e-08   176s
  56   8.85938738e+01  8.85258479e+01  1.31e-09 6.18e-13  2.58e-08   181s
  57   8.85916291e+01  8.85281942e+01  1.22e-09 1.10e-13  2.40e-08   185s
  58   8.85891499e+01  8.85305652e+01  1.12e-09 4.37e-13  2.22e-08   190s
  59   8.85853681e+01  8.85326518e+01  2.69e-09 2.17e-13  2.00e-08   192s
  60   8.85809592e+01  8.85342790e+01  3.64e-09 3.13e-13  1.77e-08   195s
  61   8.85783892e+01  8.85390658e+01  2.67e-09 1.53e-13  1.49e-08   199s
  62   8.85774837e+01  8.85411236e+01  2.47e-09 2.49e-13  1.38e-08   204s
  63   8.85728501e+01  8.85428652e+01  1.67e-09 3.02e-13  1.14e-08   209s
  64   8.85725452e+01  8.85437028e+01  1.61e-09 4.26e-13  1.09e-08   216s
  65   8.85689514e+01  8.85449143e+01  4.32e-09 3.41e-13  9.11e-09   221s
  66   8.85686889e+01  8.85452981e+01  4.09e-09 4.33e-13  8.86e-09   225s
  67   8.85676574e+01  8.85464088e+01  2.98e-09 1.65e-13  8.05e-09   228s
  68   8.85674881e+01  8.85478416e+01  2.81e-09 6.00e-13  7.44e-09   232s
  69   8.85671886e+01  8.85478903e+01  2.60e-09 2.52e-13  7.31e-09   235s
  70   8.85668611e+01  8.85485359e+01  2.29e-09 1.92e-13  6.94e-09   239s
  71   8.85660436e+01  8.85494558e+01  2.17e-09 2.42e-13  6.29e-09   241s
  72   8.85655969e+01  8.85503556e+01  1.58e-09 3.02e-13  5.78e-09   243s
  73   8.85655457e+01  8.85509809e+01  1.54e-09 3.69e-13  5.52e-09   249s
  74   8.85654921e+01  8.85515422e+01  1.46e-09 4.33e-13  5.29e-09   252s
  75   8.85653438e+01  8.85522347e+01  1.27e-09 1.04e-12  4.97e-09   257s
  76   8.85652376e+01  8.85534443e+01  1.11e-09 1.92e-13  4.47e-09   263s
  77   8.85651539e+01  8.85535213e+01  1.03e-09 1.71e-13  4.41e-09   265s
  78   8.85650663e+01  8.85538103e+01  9.43e-10 2.63e-13  4.27e-09   268s
  79   8.85650335e+01  8.85539911e+01  2.24e-09 6.47e-13  4.18e-09   277s
  80   8.85650233e+01  8.85550646e+01  2.21e-09 4.23e-13  3.77e-09   280s
  81   8.85649804e+01  8.85555307e+01  2.07e-09 3.84e-13  3.58e-09   288s
  82   8.85648937e+01  8.85562281e+01  9.25e-09 4.44e-13  3.28e-09   299s
  83   8.85648261e+01  8.85564992e+01  1.03e-08 4.12e-13  3.16e-09   307s
  84   8.85647992e+01  8.85566507e+01  1.94e-08 4.69e-13  3.09e-09   316s
  85   8.85647391e+01  8.85568197e+01  1.78e-08 4.26e-13  3.00e-09   321s
  86   8.85647262e+01  8.85570320e+01  1.73e-08 1.15e-13  2.92e-09   329s
  87   8.85646704e+01  8.85579054e+01  1.50e-08 2.77e-13  2.56e-09   332s
  88   8.85646587e+01  8.85579359e+01  1.47e-08 2.27e-13  2.55e-09   338s
  89   8.85646084e+01  8.85582577e+01  1.29e-08 3.00e-13  2.41e-09   341s
  90   8.85645661e+01  8.85588869e+01  1.12e-08 5.76e-13  2.15e-09   347s
  91   8.85645305e+01  8.85589389e+01  9.99e-09 6.25e-13  2.12e-09   359s
  92   8.85645224e+01  8.85590076e+01  9.75e-09 1.10e-12  2.09e-09   365s
  93   8.85645194e+01  8.85590483e+01  9.66e-09 1.51e-12  2.07e-09   370s
  94   8.85645108e+01  8.85590713e+01  9.48e-09 4.33e-13  2.06e-09   376s
  95   8.85645082e+01  8.85592006e+01  9.34e-09 4.12e-13  2.01e-09   380s
  96   8.85644524e+01  8.85601517e+01  7.00e-09 8.56e-13  1.63e-09   384s
  97   8.85644300e+01  8.85601707e+01  6.34e-09 4.16e-13  1.61e-09   394s
  98   8.85644271e+01  8.85602141e+01  6.26e-09 3.20e-13  1.60e-09   398s
  99   8.85643897e+01  8.85602445e+01  5.23e-09 6.43e-13  1.57e-09   409s
 100   8.85643851e+01  8.85602803e+01  5.13e-09 5.76e-13  1.56e-09   415s
 101   8.85643829e+01  8.85602922e+01  5.06e-09 9.31e-13  1.55e-09   422s
 102   8.85643822e+01  8.85603074e+01  5.04e-09 6.11e-13  1.54e-09   428s
 103   8.85643788e+01  8.85603313e+01  4.96e-09 4.69e-13  1.53e-09   434s
 104   8.85643575e+01  8.85608108e+01  4.19e-09 9.66e-13  1.34e-09   447s
 105   8.85643470e+01  8.85609474e+01  3.88e-09 6.25e-13  1.29e-09   462s
 106   8.85643203e+01  8.85612017e+01  2.97e-09 1.42e-13  1.18e-09   474s
 107   8.85642980e+01  8.85618179e+01  2.21e-09 7.78e-13  9.40e-10   484s
 108   8.85642918e+01  8.85618336e+01  2.06e-09 5.04e-13  9.31e-10   496s
 109   8.85642817e+01  8.85619388e+01  1.82e-09 1.72e-13  8.88e-10   504s
 110   8.85642721e+01  8.85621705e+01  1.53e-09 2.74e-13  7.96e-10   513s
 111   8.85642587e+01  8.85623973e+01  1.67e-09 1.69e-14  7.05e-10   522s
 112   8.85642543e+01  8.85625972e+01  1.54e-09 4.48e-13  6.28e-10   526s
 113   8.85642410e+01  8.85626807e+01  2.44e-09 2.03e-13  5.91e-10   535s
 114   8.85642393e+01  8.85628315e+01  1.18e-09 4.97e-13  5.33e-10   541s
 115   8.85642325e+01  8.85629321e+01  5.17e-08 7.57e-13  4.93e-10   546s
 116   8.85642278e+01  8.85631882e+01  4.45e-08 3.84e-13  3.94e-10   556s
 117   8.85642188e+01  8.85633768e+01  2.92e-08 1.74e-13  3.19e-10   561s
 118   8.85642100e+01  8.85634623e+01  1.59e-08 4.19e-13  2.83e-10   571s
 119   8.85642055e+01  8.85637298e+01  2.59e-08 3.98e-13  1.80e-10   578s
 120   8.85641991e+01  8.85639952e+01  4.35e-08 4.90e-13  7.72e-11   585s
 121   8.85641947e+01  8.85640520e+01  1.50e-07 3.73e-13  5.40e-11   587s
 122   8.85641938e+01  8.85640723e+01  8.51e-08 3.34e-13  4.60e-11   589s
 123   8.85641936e+01  8.85640895e+01  7.18e-08 1.88e-13  3.94e-11   594s
 124   8.85641932e+01  8.85641126e+01  7.43e-08 2.98e-13  3.05e-11   596s
 125   8.85641931e+01  8.85641627e+01  5.89e-08 3.34e-13  1.14e-11   600s
 126   8.85641930e+01  8.85641680e+01  4.81e-08 2.86e-13  9.44e-12   606s
 127   8.85641930e+01  8.85641856e+01  8.70e-08 4.62e-14  2.72e-12   609s
 128   8.85641930e+01  8.85641912e+01  8.31e-08 2.03e-13  6.04e-13   612s

Barrier solved model in 128 iterations and 612.19 seconds (190.87 work units)
Optimal objective 8.85642100e+01


Root crossover log...

  131543 DPushes remaining with DInf 0.0000000e+00               614s
   62626 DPushes remaining with DInf 0.0000000e+00               616s
   60594 DPushes remaining with DInf 0.0000000e+00               622s
   60285 DPushes remaining with DInf 0.0000000e+00               627s
   59476 DPushes remaining with DInf 0.0000000e+00               632s
   57944 DPushes remaining with DInf 1.5745385e-06               637s
   56139 DPushes remaining with DInf 1.5745385e-06               640s
   55090 DPushes remaining with DInf 1.5745385e-06               647s
   54770 DPushes remaining with DInf 1.5745385e-06               650s
   53900 DPushes remaining with DInf 1.5745385e-06               657s
   53024 DPushes remaining with DInf 1.5745385e-06               662s
   52113 DPushes remaining with DInf 1.5745385e-06               667s
   50896 DPushes remaining with DInf 1.5745385e-06               670s
   49602 DPushes remaining with DInf 1.5745385e-06               676s
   49021 DPushes remaining with DInf 1.5745385e-06               681s
   48448 DPushes remaining with DInf 1.5745385e-06               687s
   48098 DPushes remaining with DInf 1.5745385e-06               691s
   47697 DPushes remaining with DInf 1.5745385e-06               696s
   46307 DPushes remaining with DInf 1.5745385e-06               700s
   45707 DPushes remaining with DInf 1.5745385e-06               705s
   44766 DPushes remaining with DInf 1.5745385e-06               711s
   44241 DPushes remaining with DInf 1.5745385e-06               716s
   43721 DPushes remaining with DInf 1.5745385e-06               722s
   42951 DPushes remaining with DInf 1.5745385e-06               728s
   40562 DPushes remaining with DInf 1.5745385e-06               730s
   38702 DPushes remaining with DInf 1.5745385e-06               737s
   37462 DPushes remaining with DInf 1.5745385e-06               740s
   36222 DPushes remaining with DInf 1.5745385e-06               745s
   34362 DPushes remaining with DInf 1.5745385e-06               751s
   33122 DPushes remaining with DInf 1.5745385e-06               756s
   32062 DPushes remaining with DInf 1.5745385e-06               763s
   31622 DPushes remaining with DInf 1.5745385e-06               766s
   30432 DPushes remaining with DInf 1.5745385e-06               772s
   25332 DPushes remaining with DInf 0.0000000e+00               775s
   22807 DPushes remaining with DInf 0.0000000e+00               780s
   20327 DPushes remaining with DInf 0.0000000e+00               786s
   17847 DPushes remaining with DInf 0.0000000e+00               791s
   13920 DPushes remaining with DInf 0.0000000e+00               795s
   10320 DPushes remaining with DInf 0.0000000e+00               800s
    7840 DPushes remaining with DInf 0.0000000e+00               806s
    5360 DPushes remaining with DInf 0.0000000e+00               811s
    1319 DPushes remaining with DInf 0.0000000e+00               816s
       0 DPushes remaining with DInf 0.0000000e+00               819s

  197095 PPushes remaining with PInf 5.0620535e-03               819s
   68096 PPushes remaining with PInf 1.1973707e-02               821s
      46 PPushes remaining with PInf 4.1818802e-02               826s
       0 PPushes remaining with PInf 2.7541301e-02               828s

  Push phase complete: Pinf 2.7541301e-02, Dinf 2.3214887e+00    828s


Root simplex log...

Iteration    Objective       Primal Inf.    Dual Inf.      Time
  315485    8.8564192e+01   0.000000e+00   2.321489e+00    831s
  315705    8.8564192e+01   3.418459e-03   0.000000e+00    840s
  315773    8.8564192e+01   0.000000e+00   0.000000e+00    842s
  315773    8.8564192e+01   0.000000e+00   0.000000e+00    846s

Root relaxation: objective 8.856419e+01, 315773 iterations, 821.18 seconds (932.38 work units)

    Nodes    |    Current Node    |     Objective Bounds      |     Work
 Expl Unexpl |  Obj  Depth IntInf | Incumbent    BestBd   Gap | It/Node Time

     0     0   88.56419    0    7          -   88.56419      -     -  847s
H    0     0                     135.5159807   88.56419  34.6%     -  865s
     0     0   88.56419    0    7  135.51598   88.56419  34.6%     - 1301s
     0     2   88.56419    0    7  135.51598   88.56419  34.6%     - 35717s
     1     4   90.35427    1    7  135.51598   88.56437  34.6% 226058 42119s
     3     6   93.98314    2    6  135.51598   90.35480  33.3% 377701 47259s
     7    12   96.33910    3    5  135.51598   93.98315  30.6% 374838 50060s
    13    14   98.98183    4    4  135.51598   96.33952  28.9% 305487 57211s
    25    24  100.63593    5    4  135.51598   98.98213  27.0% 344168 64274s
    39    38  102.51766    6    3  135.51598  100.63633  25.7% 282428 65632s
H   63    52                     123.9689127  102.51766  17.3% 238748 70051s
H   71    52                     116.6352850  102.51766  12.1% 217818 70051s
H   75    52                     115.6447465  102.51766  11.4% 208806 70051s
    99    12  113.86527    8    1  115.64475  102.52793  11.3% 262397 70935s
H  124    12                     113.4788532  102.52793  9.65% 210898 70935s
   131     0     cutoff    9       113.47885  108.91023  4.03% 202188 70958s

Explored 138 nodes (26859601 simplex iterations) in 70964.61 seconds (129029.96 work units)
Thread count was 36 (of 36 available processors)

Solution count 5: 113.479 115.645 116.635 ... 135.516

Optimal solution found (tolerance 1.00e-02)
Warning: max constraint violation (7.8590e-06) exceeds tolerance
Best objective 1.134788532378e+02, best bound 1.134788532378e+02, gap 0.0000%
Termination condition:  optimal
# ==========================================================
# = Solver Results                                         =
# ==========================================================
# ----------------------------------------------------------
#   Problem Information
# ----------------------------------------------------------
Problem: 
- Name: x1
  Lower bound: 113.47885323777514
  Upper bound: 113.47885323777551
  Number of objectives: 1
  Number of constraints: 2140323
  Number of variables: 677969
  Number of binary variables: 9
  Number of integer variables: 9
  Number of continuous variables: 677960
  Number of nonzeros: 6990646
  Sense: minimize
# ----------------------------------------------------------
#   Solver Information
# ----------------------------------------------------------
Solver: 
- Status: ok
  Return code: 0
  Message: Model was solved to optimality (subject to tolerances), and an optimal solution is available.
  Termination condition: optimal
  Termination message: Model was solved to optimality (subject to tolerances), and an optimal solution is available.
  Wall time: 70964.65711092949
  Error rc: 0
  Time: 70977.03029322624
# ----------------------------------------------------------
#   Solution Information
# ----------------------------------------------------------
Solution: 
- number of solutions: 0
  number of solutions displayed: 0
# ============================================================================= #
# ============================================================================= #
fixing: vNetworkInvest[2030,Node_2,Node_3,cac2]
fixing: vNetworkInvest[2030,Node_2,Node_3,cac3]
fixing: vNetworkInvest[2030,Node_1,Node_2,cac3]
fixing: vNetworkInvest[2030,Node_1,Node_3,cac3]
fixing: vNetworkInvest[2030,Node_2,Node_3,cac1]
fixing: vNetworkInvest[2030,Node_1,Node_2,cac1]
fixing: vNetworkInvest[2030,Node_1,Node_3,cac2]
fixing: vNetworkInvest[2030,Node_1,Node_2,cac2]
fixing: vNetworkInvest[2030,Node_1,Node_3,cac1]
Number of fixed variables:  9
# ============================================================================= #
# ============================================================================= #
WARNING: Implicitly replacing the Component attribute dual (type=<class
'pyomo.core.base.suffix.Suffix'>) on block 'openStarNet - Open Version of the
StartNetLite Model (Long Term Transmission Expansion Planning) - Version 1.0.0
- January 16, 2023' with a new Component (type=<class
'pyomo.core.base.suffix.Suffix'>). This is usually indicative of a modelling
error. To avoid this warning, use block.del_component() and
block.add_component().
WARNING: Implicitly replacing the Component attribute rc (type=<class
'pyomo.core.base.suffix.Suffix'>) on block 'openStarNet - Open Version of the
StartNetLite Model (Long Term Transmission Expansion Planning) - Version 1.0.0
- January 16, 2023' with a new Component (type=<class
'pyomo.core.base.suffix.Suffix'>). This is usually indicative of a modelling
error. To avoid this warning, use block.del_component() and
block.add_component().
# ==========================================================
# = Solver Results                                         =
# ==========================================================
# ----------------------------------------------------------
#   Problem Information
# ----------------------------------------------------------
Problem: 
- Name: x1
  Lower bound: 113.4788532621428
  Upper bound: 113.4788532621428
  Number of objectives: 1
  Number of constraints: 2140323
  Number of variables: 677960
  Number of binary variables: 0
  Number of integer variables: 0
  Number of continuous variables: 677960
  Number of nonzeros: 5732653
  Sense: minimize
# ----------------------------------------------------------
#   Solver Information
# ----------------------------------------------------------
Solver: 
- Status: ok
  Return code: 0
  Message: Model was solved to optimality (subject to tolerances), and an optimal solution is available.
  Termination condition: optimal
  Termination message: Model was solved to optimality (subject to tolerances), and an optimal solution is available.
  Wall time: 30.76101589202881
  Error rc: 0
  Time: 48.05328679084778
# ----------------------------------------------------------
#   Solution Information
# ----------------------------------------------------------
Solution: 
- number of solutions: 0
  number of solutions displayed: 0
Solving                               ...  71146 s
Objective function value                   113.48 M€
Objective function value                   113.4788532621428
Writing         cost summary results  ...  0 s
Writing           investment results  ...  0 s
Writing       energy balance results  ...  4 s
Writing    network operation results  ...  3 s
Writing generation operation results  ...  2 s
Writing        ESS operation results  ...  0 s
Writing             economic results  ...  0 s

 #### Academic research license - for non-commercial use only #### 

Elapsed time: 71311 seconds
